NAME : X-n502-k39
COMMENT : "Generated by Uchoa, Pecin, Pessoa, Poggi, Subramanian, and Vidal (2013)"
TYPE : CVRP
DIMENSION : 502
EDGE_WEIGHT_TYPE : EUC_2D
CAPACITY : 13
NODE_COORD_SECTION
1 0 0
2 159 917
3 635 200
4 278 907
5 667 141
6 119 954
7 29 448
8 590 87
9 375 990
10 511 374
11 298 957
12 107 911
13 323 766
14 161 892
15 151 912
16 438 1000
17 284 933
18 724 191
19 286 940
20 144 785
21 672 157
22 759 176
23 553 179
24 625 167
25 133 924
26 695 73
27 149 946
28 599 162
29 305 712
30 229 709
31 332 874
32 756 143
33 696 248
34 94 777
35 381 975
36 224 928
37 414 951
38 910 190
39 749 162
40 668 273
41 146 786
42 17 793
43 255 883
44 326 837
45 549 226
46 137 868
47 74 977
48 618 248
49 328 898
50 62 802
51 177 914
52 646 208
53 666 142
54 591 205
55 163 873
56 721 164
57 623 153
58 333 956
59 237 874
60 729 102
61 330 896
62 192 949
63 446 930
64 148 897
65 92 876
66 389 942
67 131 847
68 237 990
69 594 149
70 780 190
71 719 271
72 168 982
73 278 911
74 256 896
75 279 903
76 613 47
77 597 187
78 440 296
79 320 872
80 261 925
81 301 931
82 599 218
83 227 860
84 591 189
85 319 992
86 617 172
87 118 839
88 117 909
89 578 300
90 503 966
91 232 907
92 34 955
93 191 816
94 273 42
95 171 877
96 132 920
97 113 906
98 581 125
99 138 910
100 149 870
101 622 303
102 278 845
103 587 60
104 234 818
105 310 832
106 568 227
107 711 167
108 728 251
109 185 937
110 110 840
111 254 945
112 140 937
113 238 919
114 9 875
115 97 799
116 804 100
117 243 927
118 310 938
119 171 826
120 677 213
121 708 166
122 151 931
123 262 920
124 121 769
125 149 660
126 199 749
127 78 738
128 323 963
129 63 799
130 233 931
131 693 170
132 673 156
133 213 980
134 620 191
135 125 946
136 748 117
137 250 926
138 661 327
139 147 831
140 181 923
141 548 235
142 682 157
143 263 898
144 469 339
145 144 915
146 569 234
147 577 450
148 598 231
149 693 229
150 227 952
151 211 643
152 12 942
153 288 969
154 734 312
155 641 37
156 241 761
157 618 206
158 156 915
159 712 391
160 74 787
161 705 109
162 240 902
163 603 338
164 572 363
165 620 204
166 272 925
167 652 231
168 585 299
169 107 789
170 617 223
171 242 907
172 601 240
173 453 388
174 301 889
175 246 818
176 356 916
177 681 238
178 607 119
179 351 970
180 159 896
181 582 156
182 472 257
183 143 878
184 113 926
185 236 888
186 738 73
187 677 194
188 716 196
189 532 304
190 334 772
191 514 326
192 220 712
193 631 121
194 531 262
195 707 228
196 617 160
197 624 151
198 609 191
199 599 228
200 210 727
201 481 78
202 239 749
203 650 373
204 550 138
205 393 807
206 195 806
207 81 873
208 375 829
209 506 104
210 104 898
211 674 225
212 271 910
213 222 806
214 655 37
215 324 847
216 622 54
217 399 213
218 101 875
219 668 402
220 30 895
221 241 842
222 627 176
223 869 235
224 812 223
225 561 286
226 171 973
227 582 242
228 192 858
229 651 183
230 175 840
231 365 946
232 215 770
233 125 924
234 296 984
235 682 174
236 165 846
237 136 982
238 397 821
239 185 807
240 236 972
241 278 948
242 338 880
243 759 215
244 498 51
245 177 962
246 253 878
247 190 865
248 612 266
249 204 902
250 169 877
251 101 877
252 586 247
253 242 885
254 235 775
255 585 201
256 592 164
257 461 897
258 652 246
259 267 899
260 204 860
261 298 852
262 156 936
263 135 977
264 268 927
265 303 918
266 110 877
267 625 248
268 265 857
269 592 325
270 715 115
271 565 376
272 306 759
273 208 961
274 120 892
275 115 963
276 33 726
277 750 227
278 432 927
279 97 802
280 552 303
281 257 846
282 191 873
283 595 189
284 190 815
285 175 949
286 359 932
287 458 246
288 175 872
289 486 173
290 320 818
291 207 945
292 32 894
293 183 837
294 76 937
295 154 972
296 215 886
297 647 225
298 90 963
299 635 199
300 310 860
301 757 281
302 528 222
303 187 947
304 568 144
305 179 893
306 429 939
307 323 841
308 527 77
309 116 883
310 792 274
311 611 282
312 170 927
313 776 408
314 136 925
315 161 968
316 575 237
317 283 911
318 684 269
319 303 957
320 98 843
321 608 145
322 136 934
323 412 885
324 435 879
325 421 265
326 189 916
327 296 925
328 394 969
329 161 856
330 222 947
331 189 816
332 470 256
333 239 875
334 171 888
335 433 776
336 434 170
337 205 941
338 55 872
339 354 803
340 612 189
341 135 857
342 664 215
343 145 863
344 740 71
345 102 946
346 592 250
347 519 99
348 214 884
349 402 983
350 593 174
351 118 922
352 738 121
353 41 948
354 350 705
355 544 124
356 196 681
357 160 889
358 159 858
359 654 195
360 782 275
361 328 864
362 605 668
363 241 885
364 740 404
365 266 914
366 717 180
367 458 81
368 684 230
369 301 860
370 180 920
371 301 865
372 294 964
373 383 912
374 559 143
375 747 383
376 433 966
377 563 258
378 827 145
379 294 784
380 147 707
381 173 944
382 298 915
383 175 923
384 333 919
385 280 869
386 596 219
387 614 286
388 104 861
389 279 771
390 188 938
391 100 840
392 117 866
393 722 126
394 215 853
395 276 893
396 444 296
397 547 286
398 213 803
399 86 990
400 173 947
401 672 173
402 130 983
403 360 987
404 718 192
405 66 817
406 657 97
407 33 914
408 649 414
409 680 208
410 623 266
411 678 101
412 270 864
413 620 232
414 335 935
415 451 57
416 295 987
417 101 738
418 359 881
419 158 934
420 182 919
421 717 177
422 653 54
423 683 139
424 381 928
425 277 962
426 645 238
427 608 267
428 625 217
429 565 76
430 523 188
431 519 855
432 165 947
433 305 922
434 406 294
435 125 702
436 227 858
437 774 36
438 611 204
439 107 703
440 209 979
441 557 175
442 80 903
443 172 890
444 203 984
445 665 200
446 230 892
447 138 914
448 270 872
449 702 198
450 737 258
451 150 975
452 666 196
453 174 804
454 266 959
455 142 936
456 142 976
457 79 750
458 208 836
459 439 240
460 438 339
461 841 230
462 289 910
463 191 888
464 309 861
465 242 958
466 408 932
467 243 954
468 616 200
469 729 281
470 642 230
471 707 106
472 395 678
473 134 820
474 514 197
475 547 236
476 660 98
477 0 923
478 190 870
479 302 673
480 50 967
481 79 930
482 628 254
483 3 965
484 159 988
485 613 252
486 229 833
487 343 877
488 255 772
489 626 246
490 332 921
491 214 861
492 200 882
493 117 872
494 119 964
495 370 865
496 632 243
497 304 893
498 52 899
499 434 232
500 288 773
501 301 905
502 284 799
PICKUP_AND_DELIVERY_SECTION
1 0 0 1000000000 0 0 0
2 0 0 1000000000 0 0.8266 0.1734
3 0 0 1000000000 0 0.685 0.315
4 0 0 1000000000 0 0.6935 0.3065
5 0 0 1000000000 0 0.7886 0.2114
6 0 0 1000000000 0 0.8753 0.1247
7 0 0 1000000000 0 0.9353 0.06473
8 0 0 1000000000 0 0.8525 0.1475
9 0 0 1000000000 0 0.6212 0.3788
10 0 0 1000000000 0 0.2681 0.7319
11 0 0 1000000000 0 0.6886 0.3114
12 0 0 1000000000 0 0.8825 0.1175
13 0 0 1000000000 0 0.5783 0.4217
14 0 0 1000000000 0 0.8195 0.1805
15 0 0 1000000000 0 0.8344 0.1656
16 0 0 1000000000 0 0.562 0.438
17 0 0 1000000000 0 0.6956 0.3044
18 0 0 1000000000 0 0.7362 0.2638
19 0 0 1000000000 0 0.6957 0.3043
20 0 0 1000000000 0 0.8166 0.1834
21 0 0 1000000000 0 0.7664 0.2336
22 0 0 1000000000 0 0.7681 0.2319
23 0 0 1000000000 0 0.6763 0.3237
24 0 0 1000000000 0 0.7328 0.2672
25 0 0 1000000000 0 0.8561 0.1439
26 0 0 1000000000 0 0.895 0.105
27 0 0 1000000000 0 0.8425 0.1575
28 0 0 1000000000 0 0.7295 0.2705
29 0 0 1000000000 0 0.5716 0.4284
30 0 0 1000000000 0 0.677 0.323
31 0 0 1000000000 0 0.6201 0.3799
32 0 0 1000000000 0 0.8108 0.1892
33 0 0 1000000000 0 0.6437 0.3563
34 0 0 1000000000 0 0.879 0.121
35 0 0 1000000000 0 0.6092 0.3908
36 0 0 1000000000 0 0.7586 0.2414
37 0 0 1000000000 0 0.5647 0.4353
38 0 0 1000000000 0 0.7912 0.2088
39 0 0 1000000000 0 0.7837 0.2163
40 0 0 1000000000 0 0.5913 0.4087
41 0 0 1000000000 0 0.8142 0.1858
42 0 0 1000000000 0 0.9786 0.02144
43 0 0 1000000000 0 0.7112 0.2888
44 0 0 1000000000 0 0.6105 0.3895
45 0 0 1000000000 0 0.5883 0.4117
46 0 0 1000000000 0 0.8422 0.1578
47 0 0 1000000000 0 0.9243 0.07574
48 0 0 1000000000 0 0.5987 0.4013
49 0 0 1000000000 0 0.6347 0.3653
50 0 0 1000000000 0 0.9227 0.07731
51 0 0 1000000000 0 0.8063 0.1937
52 0 0 1000000000 0 0.678 0.322
53 0 0 1000000000 0 0.7868 0.2132
54 0 0 1000000000 0 0.6531 0.3469
55 0 0 1000000000 0 0.8133 0.1867
56 0 0 1000000000 0 0.7725 0.2275
57 0 0 1000000000 0 0.7544 0.2456
58 0 0 1000000000 0 0.6517 0.3483
59 0 0 1000000000 0 0.7288 0.2712
60 0 0 1000000000 0 0.8601 0.1399
61 0 0 1000000000 0 0.6317 0.3683
62 0 0 1000000000 0 0.7977 0.2023
63 0 0 1000000000 0 0.5204 0.4796
64 0 0 1000000000 0 0.835 0.165
65 0 0 1000000000 0 0.895 0.105
66 0 0 1000000000 0 0.587 0.413
67 0 0 1000000000 0 0.8453 0.1547
68 0 0 1000000000 0 0.7606 0.2394
69 0 0 1000000000 0 0.7492 0.2508
70 0 0 1000000000 0 0.7564 0.2436
71 0 0 1000000000 0 0.6231 0.3769
72 0 0 1000000000 0 0.8289 0.1711
73 0 0 1000000000 0 0.6948 0.3052
74 0 0 1000000000 0 0.7143 0.2857
75 0 0 1000000000 0 0.691 0.309
76 0 0 1000000000 0 0.9233 0.07667
77 0 0 1000000000 0 0.6868 0.3132
78 0 0 1000000000 0 0.3273 0.6727
79 0 0 1000000000 0 0.633 0.367
80 0 0 1000000000 0 0.7178 0.2822
81 0 0 1000000000 0 0.6767 0.3233
82 0 0 1000000000 0 0.6361 0.3639
83 0 0 1000000000 0 0.736 0.264
84 0 0 1000000000 0 0.6802 0.3198
85 0 0 1000000000 0 0.6784 0.3216
86 0 0 1000000000 0 0.7212 0.2788
87 0 0 1000000000 0 0.8594 0.1406
88 0 0 1000000000 0 0.8713 0.1287
89 0 0 1000000000 0 0.481 0.519
90 0 0 1000000000 0 0.4793 0.5207
91 0 0 1000000000 0 0.7442 0.2558
92 0 0 1000000000 0 0.9644 0.0356
93 0 0 1000000000 0 0.7659 0.2341
94 0 0 1000000000 0 0.8462 0.1538
95 0 0 1000000000 0 0.805 0.195
96 0 0 1000000000 0 0.8565 0.1435
97 0 0 1000000000 0 0.8753 0.1247
98 0 0 1000000000 0 0.7849 0.2151
99 0 0 1000000000 0 0.8484 0.1516
100 0 0 1000000000 0 0.8287 0.1713
101 0 0 1000000000 0 0.5129 0.4871
102 0 0 1000000000 0 0.671 0.329
103 0 0 1000000000 0 0.8978 0.1022
104 0 0 1000000000 0 0.7139 0.2861
105 0 0 1000000000 0 0.6274 0.3726
106 0 0 1000000000 0 0.6004 0.3996
107 0 0 1000000000 0 0.7651 0.2349
108 0 0 1000000000 0 0.6552 0.3448
109 0 0 1000000000 0 0.8026 0.1974
110 0 0 1000000000 0 0.869 0.131
111 0 0 1000000000 0 0.7312 0.2688
112 0 0 1000000000 0 0.8506 0.1494
113 0 0 1000000000 0 0.741 0.259
114 0 0 1000000000 0 0.9897 0.01029
115 0 0 1000000000 0 0.8786 0.1214
116 0 0 1000000000 0 0.8756 0.1244
117 0 0 1000000000 0 0.7379 0.2621
118 0 0 1000000000 0 0.6695 0.3305
119 0 0 1000000000 0 0.793 0.207
120 0 0 1000000000 0 0.6854 0.3146
121 0 0 1000000000 0 0.7655 0.2345
122 0 0 1000000000 0 0.8378 0.1622
123 0 0 1000000000 0 0.7152 0.2848
124 0 0 1000000000 0 0.8427 0.1573
125 0 0 1000000000 0 0.7742 0.2258
126 0 0 1000000000 0 0.7343 0.2657
127 0 0 1000000000 0 0.8943 0.1057
128 0 0 1000000000 0 0.6646 0.3354
129 0 0 1000000000 0 0.9212 0.07885
130 0 0 1000000000 0 0.7497 0.2503
131 0 0 1000000000 0 0.7547 0.2453
132 0 0 1000000000 0 0.7682 0.2318
133 0 0 1000000000 0 0.7827 0.2173
134 0 0 1000000000 0 0.6919 0.3081
135 0 0 1000000000 0 0.8679 0.1321
136 0 0 1000000000 0 0.8436 0.1564
137 0 0 1000000000 0 0.73 0.27
138 0 0 1000000000 0 0.5053 0.4947
139 0 0 1000000000 0 0.8231 0.1769
140 0 0 1000000000 0 0.8039 0.1961
141 0 0 1000000000 0 0.5712 0.4288
142 0 0 1000000000 0 0.7698 0.2302
143 0 0 1000000000 0 0.7071 0.2929
144 0 0 1000000000 0 0.2772 0.7228
145 0 0 1000000000 0 0.8426 0.1574
146 0 0 1000000000 0 0.5888 0.4112
147 0 0 1000000000 0 0.2201 0.7799
148 0 0 1000000000 0 0.6137 0.3863
149 0 0 1000000000 0 0.6696 0.3304
150 0 0 1000000000 0 0.7616 0.2384
151 0 0 1000000000 0 0.6719 0.3281
152 0 0 1000000000 0 0.9873 0.01274
153 0 0 1000000000 0 0.7028 0.2972
154 0 0 1000000000 0 0.5749 0.4251
155 0 0 1000000000 0 0.9423 0.05772
156 0 0 1000000000 0 0.6833 0.3167
157 0 0 1000000000 0 0.6667 0.3333
158 0 0 1000000000 0 0.8295 0.1705
159 0 0 1000000000 0 0.4508 0.5492
160 0 0 1000000000 0 0.906 0.09403
161 0 0 1000000000 0 0.8454 0.1546
162 0 0 1000000000 0 0.7339 0.2661
163 0 0 1000000000 0 0.4395 0.5605
164 0 0 1000000000 0 0.3654 0.6346
165 0 0 1000000000 0 0.671 0.329
166 0 0 1000000000 0 0.7059 0.2941
167 0 0 1000000000 0 0.6457 0.3543
168 0 0 1000000000 0 0.4889 0.5111
169 0 0 1000000000 0 0.8644 0.1356
170 0 0 1000000000 0 0.6386 0.3614
171 0 0 1000000000 0 0.7332 0.2668
172 0 0 1000000000 0 0.6007 0.3993
173 0 0 1000000000 0 0.1435 0.8565
174 0 0 1000000000 0 0.6614 0.3386
175 0 0 1000000000 0 0.6993 0.3007
176 0 0 1000000000 0 0.6114 0.3886
177 0 0 1000000000 0 0.6505 0.3495
178 0 0 1000000000 0 0.804 0.196
179 0 0 1000000000 0 0.6381 0.3619
180 0 0 1000000000 0 0.8225 0.1775
181 0 0 1000000000 0 0.732 0.268
182 0 0 1000000000 0 0.4555 0.5445
183 0 0 1000000000 0 0.8371 0.1629
184 0 0 1000000000 0 0.878 0.122
185 0 0 1000000000 0 0.7342 0.2658
186 0 0 1000000000 0 0.9011 0.09892
187 0 0 1000000000 0 0.7134 0.2866
188 0 0 1000000000 0 0.7263 0.2737
189 0 0 1000000000 0 0.4286 0.5714
190 0 0 1000000000 0 0.5674 0.4326
191 0 0 1000000000 0 0.3658 0.6342
192 0 0 1000000000 0 0.691 0.309
193 0 0 1000000000 0 0.8082 0.1918
194 0 0 1000000000 0 0.5066 0.4934
195 0 0 1000000000 0 0.6775 0.3225
196 0 0 1000000000 0 0.7407 0.2593
197 0 0 1000000000 0 0.758 0.242
198 0 0 1000000000 0 0.6864 0.3136
199 0 0 1000000000 0 0.6194 0.3806
200 0 0 1000000000 0 0.7111 0.2889
201 0 0 1000000000 0 0.8378 0.1622
202 0 0 1000000000 0 0.6809 0.3191
203 0 0 1000000000 0 0.4262 0.5738
204 0 0 1000000000 0 0.7491 0.2509
205 0 0 1000000000 0 0.513 0.487
206 0 0 1000000000 0 0.7581 0.2419
207 0 0 1000000000 0 0.9072 0.09278
208 0 0 1000000000 0 0.5476 0.4524
209 0 0 1000000000 0 0.7945 0.2055
210 0 0 1000000000 0 0.8842 0.1158
211 0 0 1000000000 0 0.6662 0.3338
212 0 0 1000000000 0 0.7022 0.2978
213 0 0 1000000000 0 0.7246 0.2754
214 0 0 1000000000 0 0.9435 0.05649
215 0 0 1000000000 0 0.6175 0.3825
216 0 0 1000000000 0 0.9132 0.08682
217 0 0 1000000000 0 0.4662 0.5338
218 0 0 1000000000 0 0.8846 0.1154
219 0 0 1000000000 0 0.3982 0.6018
220 0 0 1000000000 0 0.9665 0.03352
221 0 0 1000000000 0 0.7138 0.2862
222 0 0 1000000000 0 0.7193 0.2807
223 0 0 1000000000 0 0.7296 0.2704
224 0 0 1000000000 0 0.7254 0.2746
225 0 0 1000000000 0 0.4902 0.5098
226 0 0 1000000000 0 0.8243 0.1757
227 0 0 1000000000 0 0.5842 0.4158
228 0 0 1000000000 0 0.7762 0.2238
229 0 0 1000000000 0 0.7189 0.2811
230 0 0 1000000000 0 0.7917 0.2083
231 0 0 1000000000 0 0.6142 0.3858
232 0 0 1000000000 0 0.7208 0.2792
233 0 0 1000000000 0 0.8647 0.1353
234 0 0 1000000000 0 0.6992 0.3008
235 0 0 1000000000 0 0.7449 0.2551
236 0 0 1000000000 0 0.805 0.195
237 0 0 1000000000 0 0.8615 0.1385
238 0 0 1000000000 0 0.5164 0.4836
239 0 0 1000000000 0 0.7708 0.2292
240 0 0 1000000000 0 0.7572 0.2428
241 0 0 1000000000 0 0.7068 0.2932
242 0 0 1000000000 0 0.6159 0.3841
243 0 0 1000000000 0 0.7167 0.2833
244 0 0 1000000000 0 0.8976 0.1024
245 0 0 1000000000 0 0.816 0.184
246 0 0 1000000000 0 0.7118 0.2882
247 0 0 1000000000 0 0.7803 0.2197
248 0 0 1000000000 0 0.5654 0.4346
249 0 0 1000000000 0 0.7738 0.2262
250 0 0 1000000000 0 0.8073 0.1927
251 0 0 1000000000 0 0.8848 0.1152
252 0 0 1000000000 0 0.5785 0.4215
253 0 0 1000000000 0 0.7266 0.2734
254 0 0 1000000000 0 0.6968 0.3032
255 0 0 1000000000 0 0.6564 0.3436
256 0 0 1000000000 0 0.723 0.277
257 0 0 1000000000 0 0.4861 0.5139
258 0 0 1000000000 0 0.6227 0.3773
259 0 0 1000000000 0 0.703 0.297
260 0 0 1000000000 0 0.7628 0.2372
261 0 0 1000000000 0 0.6502 0.3498
262 0 0 1000000000 0 0.8333 0.1667
263 0 0 1000000000 0 0.8618 0.1382
264 0 0 1000000000 0 0.7109 0.2891
265 0 0 1000000000 0 0.6699 0.3301
266 0 0 1000000000 0 0.8746 0.1254
267 0 0 1000000000 0 0.6032 0.3968
268 0 0 1000000000 0 0.6908 0.3092
269 0 0 1000000000 0 0.451 0.549
270 0 0 1000000000 0 0.8392 0.1608
271 0 0 1000000000 0 0.3345 0.6655
272 0 0 1000000000 0 0.5968 0.4032
273 0 0 1000000000 0 0.7836 0.2164
274 0 0 1000000000 0 0.8655 0.1345
275 0 0 1000000000 0 0.8806 0.1194
276 0 0 1000000000 0 0.9545 0.04545
277 0 0 1000000000 0 0.6973 0.3027
278 0 0 1000000000 0 0.534 0.466
279 0 0 1000000000 0 0.8791 0.1209
280 0 0 1000000000 0 0.4511 0.5489
281 0 0 1000000000 0 0.6962 0.3038
282 0 0 1000000000 0 0.7812 0.2188
283 0 0 1000000000 0 0.6824 0.3176
284 0 0 1000000000 0 0.7669 0.2331
285 0 0 1000000000 0 0.8156 0.1844
286 0 0 1000000000 0 0.6148 0.3852
287 0 0 1000000000 0 0.4629 0.5371
288 0 0 1000000000 0 0.7993 0.2007
289 0 0 1000000000 0 0.644 0.356
290 0 0 1000000000 0 0.6088 0.3912
291 0 0 1000000000 0 0.781 0.219
292 0 0 1000000000 0 0.9642 0.03579
293 0 0 1000000000 0 0.7814 0.2186
294 0 0 1000000000 0 0.9189 0.08111
295 0 0 1000000000 0 0.8416 0.1584
296 0 0 1000000000 0 0.7573 0.2427
297 0 0 1000000000 0 0.6522 0.3478
298 0 0 1000000000 0 0.9065 0.09346
299 0 0 1000000000 0 0.6866 0.3134
300 0 0 1000000000 0 0.6395 0.3605
301 0 0 1000000000 0 0.6288 0.3712
302 0 0 1000000000 0 0.5795 0.4205
303 0 0 1000000000 0 0.8025 0.1975
304 0 0 1000000000 0 0.7465 0.2535
305 0 0 1000000000 0 0.7996 0.2004
306 0 0 1000000000 0 0.5431 0.4569
307 0 0 1000000000 0 0.6159 0.3841
308 0 0 1000000000 0 0.8539 0.1461
309 0 0 1000000000 0 0.8686 0.1314
310 0 0 1000000000 0 0.654 0.346
311 0 0 1000000000 0 0.5385 0.4615
312 0 0 1000000000 0 0.8166 0.1834
313 0 0 1000000000 0 0.4742 0.5258
314 0 0 1000000000 0 0.853 0.147
315 0 0 1000000000 0 0.8337 0.1663
316 0 0 1000000000 0 0.5878 0.4122
317 0 0 1000000000 0 0.6894 0.3106
318 0 0 1000000000 0 0.6067 0.3933
319 0 0 1000000000 0 0.6834 0.3166
320 0 0 1000000000 0 0.8837 0.1163
321 0 0 1000000000 0 0.7615 0.2385
322 0 0 1000000000 0 0.8544 0.1456
323 0 0 1000000000 0 0.5345 0.4655
324 0 0 1000000000 0 0.5051 0.4949
325 0 0 1000000000 0 0.3705 0.6295
326 0 0 1000000000 0 0.7937 0.2063
327 0 0 1000000000 0 0.68 0.32
328 0 0 1000000000 0 0.5934 0.4066
329 0 0 1000000000 0 0.8119 0.1881
330 0 0 1000000000 0 0.7656 0.2344
331 0 0 1000000000 0 0.7684 0.2316
332 0 0 1000000000 0 0.4553 0.5447
333 0 0 1000000000 0 0.7269 0.2731
334 0 0 1000000000 0 0.8074 0.1926
335 0 0 1000000000 0 0.442 0.558
336 0 0 1000000000 0 0.6083 0.3917
337 0 0 1000000000 0 0.7821 0.2179
338 0 0 1000000000 0 0.9369 0.06307
339 0 0 1000000000 0 0.5592 0.4408
340 0 0 1000000000 0 0.6912 0.3088
341 0 0 1000000000 0 0.8425 0.1575
342 0 0 1000000000 0 0.6762 0.3238
343 0 0 1000000000 0 0.832 0.168
344 0 0 1000000000 0 0.9041 0.09595
345 0 0 1000000000 0 0.8922 0.1078
346 0 0 1000000000 0 0.5777 0.4223
347 0 0 1000000000 0 0.8092 0.1908
348 0 0 1000000000 0 0.7579 0.2421
349 0 0 1000000000 0 0.591 0.409
350 0 0 1000000000 0 0.7066 0.2934
351 0 0 1000000000 0 0.872 0.128
352 0 0 1000000000 0 0.836 0.164
353 0 0 1000000000 0 0.9568 0.04325
354 0 0 1000000000 0 0.5035 0.4965
355 0 0 1000000000 0 0.7721 0.2279
356 0 0 1000000000 0 0.7122 0.2878
357 0 0 1000000000 0 0.82 0.18
358 0 0 1000000000 0 0.8147 0.1853
359 0 0 1000000000 0 0.7018 0.2982
360 0 0 1000000000 0 0.6483 0.3517
361 0 0 1000000000 0 0.6204 0.3796
362 0 0 1000000000 0 0.09431 0.9057
363 0 0 1000000000 0 0.7277 0.2723
364 0 0 1000000000 0 0.4541 0.5459
365 0 0 1000000000 0 0.709 0.291
366 0 0 1000000000 0 0.749 0.251
367 0 0 1000000000 0 0.8231 0.1769
368 0 0 1000000000 0 0.6637 0.3363
369 0 0 1000000000 0 0.65 0.35
370 0 0 1000000000 0 0.8043 0.1957
371 0 0 1000000000 0 0.652 0.348
372 0 0 1000000000 0 0.695 0.305
373 0 0 1000000000 0 0.58 0.42
374 0 0 1000000000 0 0.7442 0.2558
375 0 0 1000000000 0 0.4873 0.5127
376 0 0 1000000000 0 0.5518 0.4482
377 0 0 1000000000 0 0.5417 0.4583
378 0 0 1000000000 0 0.8247 0.1753
379 0 0 1000000000 0 0.625 0.375
380 0 0 1000000000 0 0.7921 0.2079
381 0 0 1000000000 0 0.8167 0.1833
382 0 0 1000000000 0 0.6743 0.3257
383 0 0 1000000000 0 0.8104 0.1896
384 0 0 1000000000 0 0.6376 0.3624
385 0 0 1000000000 0 0.6778 0.3222
386 0 0 1000000000 0 0.6326 0.3674
387 0 0 1000000000 0 0.5342 0.4658
388 0 0 1000000000 0 0.8792 0.1208
389 0 0 1000000000 0 0.6381 0.3619
390 0 0 1000000000 0 0.7996 0.2004
391 0 0 1000000000 0 0.881 0.119
392 0 0 1000000000 0 0.8649 0.1351
393 0 0 1000000000 0 0.8255 0.1745
394 0 0 1000000000 0 0.7479 0.2521
395 0 0 1000000000 0 0.6909 0.3091
396 0 0 1000000000 0 0.3333 0.6667
397 0 0 1000000000 0 0.4771 0.5229
398 0 0 1000000000 0 0.7347 0.2653
399 0 0 1000000000 0 0.9131 0.08687
400 0 0 1000000000 0 0.8173 0.1827
401 0 0 1000000000 0 0.7426 0.2574
402 0 0 1000000000 0 0.8678 0.1322
403 0 0 1000000000 0 0.6353 0.3647
404 0 0 1000000000 0 0.7326 0.2674
405 0 0 1000000000 0 0.9192 0.08078
406 0 0 1000000000 0 0.8524 0.1476
407 0 0 1000000000 0 0.9639 0.03611
408 0 0 1000000000 0 0.3621 0.6379
409 0 0 1000000000 0 0.6941 0.3059
410 0 0 1000000000 0 0.573 0.427
411 0 0 1000000000 0 0.851 0.149
412 0 0 1000000000 0 0.6875 0.3125
413 0 0 1000000000 0 0.6258 0.3742
414 0 0 1000000000 0 0.6417 0.3583
415 0 0 1000000000 0 0.8736 0.1264
416 0 0 1000000000 0 0.7011 0.2989
417 0 0 1000000000 0 0.8631 0.1369
418 0 0 1000000000 0 0.5925 0.4075
419 0 0 1000000000 0 0.8308 0.1692
420 0 0 1000000000 0 0.802 0.198
421 0 0 1000000000 0 0.7531 0.2469
422 0 0 1000000000 0 0.9173 0.0827
423 0 0 1000000000 0 0.7965 0.2035
424 0 0 1000000000 0 0.5894 0.4106
425 0 0 1000000000 0 0.7121 0.2879
426 0 0 1000000000 0 0.631 0.369
427 0 0 1000000000 0 0.5609 0.4391
428 0 0 1000000000 0 0.6528 0.3472
429 0 0 1000000000 0 0.8655 0.1345
430 0 0 1000000000 0 0.6405 0.3595
431 0 0 1000000000 0 0.393 0.607
432 0 0 1000000000 0 0.8258 0.1742
433 0 0 1000000000 0 0.6692 0.3308
434 0 0 1000000000 0 0.2759 0.7241
435 0 0 1000000000 0 0.8219 0.1781
436 0 0 1000000000 0 0.7354 0.2646
437 0 0 1000000000 0 0.9535 0.04651
438 0 0 1000000000 0 0.6661 0.3339
439 0 0 1000000000 0 0.8478 0.1522
440 0 0 1000000000 0 0.7865 0.2135
441 0 0 1000000000 0 0.6858 0.3142
442 0 0 1000000000 0 0.9114 0.08859
443 0 0 1000000000 0 0.8067 0.1933
444 0 0 1000000000 0 0.7937 0.2063
445 0 0 1000000000 0 0.6992 0.3008
446 0 0 1000000000 0 0.7422 0.2578
447 0 0 1000000000 0 0.849 0.151
448 0 0 1000000000 0 0.6904 0.3096
449 0 0 1000000000 0 0.7179 0.2821
450 0 0 1000000000 0 0.6499 0.3501
451 0 0 1000000000 0 0.8462 0.1538
452 0 0 1000000000 0 0.7057 0.2943
453 0 0 1000000000 0 0.7836 0.2164
454 0 0 1000000000 0 0.7226 0.2774
455 0 0 1000000000 0 0.8483 0.1517
456 0 0 1000000000 0 0.8545 0.1455
457 0 0 1000000000 0 0.8947 0.1053
458 0 0 1000000000 0 0.7512 0.2488
459 0 0 1000000000 0 0.4533 0.5467
460 0 0 1000000000 0 0.226 0.774
461 0 0 1000000000 0 0.7265 0.2735
462 0 0 1000000000 0 0.6824 0.3176
463 0 0 1000000000 0 0.7849 0.2151
464 0 0 1000000000 0 0.6411 0.3589
465 0 0 1000000000 0 0.7474 0.2526
466 0 0 1000000000 0 0.5622 0.4378
467 0 0 1000000000 0 0.7453 0.2547
468 0 0 1000000000 0 0.6753 0.3247
469 0 0 1000000000 0 0.6145 0.3855
470 0 0 1000000000 0 0.6417 0.3583
471 0 0 1000000000 0 0.8501 0.1499
472 0 0 1000000000 0 0.4174 0.5826
473 0 0 1000000000 0 0.8366 0.1634
474 0 0 1000000000 0 0.6167 0.3833
475 0 0 1000000000 0 0.5686 0.4314
476 0 0 1000000000 0 0.8515 0.1485
477 0 0 1000000000 0 1 0
478 0 0 1000000000 0 0.7816 0.2184
479 0 0 1000000000 0 0.5513 0.4487
480 0 0 1000000000 0 0.9483 0.05171
481 0 0 1000000000 0 0.9151 0.08495
482 0 0 1000000000 0 0.5955 0.4045
483 0 0 1000000000 0 0.9969 0.00311
484 0 0 1000000000 0 0.8391 0.1609
485 0 0 1000000000 0 0.5889 0.4111
486 0 0 1000000000 0 0.7251 0.2749
487 0 0 1000000000 0 0.6089 0.3911
488 0 0 1000000000 0 0.6697 0.3303
489 0 0 1000000000 0 0.607 0.393
490 0 0 1000000000 0 0.6395 0.3605
491 0 0 1000000000 0 0.7515 0.2485
492 0 0 1000000000 0 0.7732 0.2268
493 0 0 1000000000 0 0.8658 0.1342
494 0 0 1000000000 0 0.8766 0.1234
495 0 0 1000000000 0 0.5723 0.4277
496 0 0 1000000000 0 0.6155 0.3845
497 0 0 1000000000 0 0.6596 0.3404
498 0 0 1000000000 0 0.9422 0.05784
499 0 0 1000000000 0 0.4654 0.5346
500 0 0 1000000000 0 0.6274 0.3726
501 0 0 1000000000 0 0.6674 0.3326
502 0 0 1000000000 0 0.6446 0.3554
